# Abinitio_DGA config file. 
# Never change lines or order! Only change values!

# file name for one-particle data
SVO-VERTEX.hdf5

# file name for two-particle data
g4iw_conn_svo_ext_l10.hdf5

# file name of umatrix
umatrix.dat

# decide if you use orbital symmetrization (1) and/or small frequency box (2). (0==.false., 1==.true.)
1 1 0

# size of small fermionic (1) and bosonic (2) frequency box
120 20

# q_vol,k_path_eom,q_path_susc, read ext hamiltonian
1 0 0 1

# file name of q path file (ignored for q_vol)
path.qp

# nkpx, nkpy, nkpz, nqpx, nqpy, nqpz, nd
20 20 20            20 20 20          1

# Output directory, has to end with '/'
./

# Decide, whether to calculate susceptibilities (1) and/or the equation of motion (2). (0==.false., 1==.true.)
1 1

# vertex type (0: 2P GF, 1: chi_conn, 2: chi)
1

# hamiltonian file
SVO_k20.hk

# number of r points in U(r) (226981)
0

# File name of extrapolated U(r)
V_r.dat

