# Abinitio_DGA config file.
# Never change lines or order! Only change values!

# number of inequivalent atoms
1

# number of d / p bands per inequivalent site -- always has to be a tupel of 2 -- (3 0) == 3d bands
1 1

# file name for one-particle data
PAM-2PG-2017-08-01-Tue-12-30-25.hdf5

# file name for two-particle data
vertex_out_PAM_large.hdf5

# file name of umatrix
umatrix_PAM.dat

# decide if you use orbital symmetrization (1) and/or small frequency box (2). (0==.false., 1==.true.)
1 0 0

# size of small fermionic (1) and bosonic (2) frequency box
3 1

# q_vol,k_path_eom,q_path_susc, read ext hamiltonian
1 0 0 1

# file name of q path file (ignored for q_vol)
path.qp

# nkpx, nkpy, nkpz, nqpx, nqpy, nqpz, nd
10 10 10            1 1 1          2

# Output directory, has to end with '/'
./Output/

# Decide, whether to calculate susceptibilities (1) and/or the equation of motion (2). (0==.false., 1==.true.)
0 1

# vertex type (0: 2P GF, 1: chi_conn, 2: chi)
0

# hamiltonian file
ham.1000

# computation with V^q (0==.false., 1==.true.)
0

# file name of V^q
Vq.file

# number of r points in U(r) (226981)
0

# File name of extrapolated U(r)
V_r.dat
